(set-logic SLIA)
(define-fun func0  ((A String) (B String) (C String) (D String) (E String) ) String (str.replace (str.replace C  D  E ) A  B ))
(define-fun func1  ((A String) (B String) (C String) (D String) ) String (str.replace A  B  (str.++ C  D )))
(define-fun func2  ((A String) (B String) (C String) ) String (str.++ A  (str.++ B  C )))
(define-fun func3  ((A String) (B String) (C String) (D String) ) String (str.++ A  (str.++ B  (str.++ C  D ))))
(define-fun func4  ((A String) (B String) (C Int) ) String (str.++ (str.at B  C ) A ))
(define-fun func5  ((A String) (B String) ) String (str.++ (str.at B  0 ) A ))
(define-fun func6  ((A String) (B String) (C String) (D String) (E String) ) String (str.++ A  (str.++ B  (str.++ C  (str.++ D  E )))))
(define-fun func7  ((A Int) ) Int (+ 1  A ))
(define-fun func8  ((A String) (B String) (C Int) ) Int (+ 1  (str.indexof A  B  C )))
(define-fun func9  ((A String) (B String) ) Int (+ 1  (str.indexof A  B  0 )))
(define-fun func10  ((A Int) ) Int (+ -1  A ))
(define-fun func11  ((A Int) (B Int) (C Int) ) Int (+ A  (+ B  C )))
(define-fun func12  ((A Int) ) Int (+ A  -1 ))
(define-fun func13  ((A Int) (B String) (C String) (D Int) ) Int (+ A  (str.indexof B  C  D )))
(define-fun func14  ((A Int) (B String) (C String) ) Int (+ A  (str.indexof B  C  1 )))
(define-fun func15  ((A Int) (B String) (C String) ) Int (+ A  (str.indexof B  C  0 )))
(define-fun func16  ((A Int) (B String) ) Int (- (str.len B ) A ))
(define-fun func17  ((A String) ) Int (- (str.len A ) 3 ))
(define-fun func18  ((A Int) ) Int (- A  3 ))
(define-fun func19  ((A String) (B Int) (C String) (D Int) ) String (str.substr A  (+ 1  (str.indexof A  C  D )) B ))
(define-fun func20  ((A String) (B Int) (C String) ) String (str.substr A  (+ 1  (str.indexof A  C  0 )) B ))
(define-fun func21  ((A String) (B Int) (C String) (D String) (E Int) ) String (str.substr A  (+ 1  (str.indexof C  D  E )) B ))
(define-fun func22  ((A String) (B Int) (C String) (D String) ) String (str.substr A  (+ 1  (str.indexof C  D  0 )) B ))
(define-fun func23  ((A String) (B Int) (C Int) ) String (str.substr A  (+ 1  C ) B ))
(define-fun func24  ((A String) (B Int) (C Int) (D String) (E Int) ) String (str.substr A  (+ C  (str.indexof A  D  E )) B ))
(define-fun func25  ((A String) (B Int) (C Int) (D String) ) String (str.substr A  (+ C  (str.indexof A  D  0 )) B ))
(define-fun func26  ((A String) (B Int) (C Int) (D String) (E String) (F Int) ) String (str.substr A  (+ C  (str.indexof D  E  F )) B ))
(define-fun func27  ((A String) (B Int) (C Int) (D String) (E String) ) String (str.substr A  (+ C  (str.indexof D  E  0 )) B ))
(define-fun func28  ((A String) (B Int) (C Int) (D Int) ) String (str.substr A  (+ C  D ) B ))
(define-fun func29  ((A String) (B Int) (C Int) ) String (str.substr A  (+ B  C ) 3 ))
(define-fun func30  ((A String) (B Int) (C Int) ) String (str.substr A  (+ B  C ) (str.len A )))
(define-fun func31  ((A String) (B Int) ) String (str.substr A  1  B ))
(define-fun func32  ((A String) (B Int) ) String (str.substr A  0  B ))
(define-fun func33  ((A String) (B Int) (C Int) ) String (str.substr A  0  (+ B  C )))
(define-fun func34  ((A String) (B String) (C Int) ) String (str.substr A  0  (str.indexof A  B  C )))
(define-fun func35  ((A String) (B String) ) String (str.substr A  0  (str.indexof A  B  0 )))
(define-fun func36  ((A String) (B String) (C String) (D Int) ) String (str.substr A  0  (str.indexof B  C  D )))
(define-fun func37  ((A String) (B String) (C String) ) String (str.substr A  0  (str.indexof B  C  1 )))
(define-fun func38  ((A String) (B String) (C String) ) String (str.substr A  0  (str.indexof B  C  0 )))
(define-fun func39  ((A String) (B Int) (C Int) (D Int) ) String (str.substr A  B  (+ C  D )))
(define-fun func40  ((A String) (B Int) (C Int) (D Int) ) String (str.substr A  B  (- C  D )))
(define-fun func41  ((A String) (B Int) ) String (str.substr A  B  3 ))
(define-fun func42  ((A String) (B Int) ) String (str.substr A  B  (str.len A )))
(define-fun func43  ((A String) (B Int) (C String) (D Int) ) String (str.substr A  B  (str.indexof A  C  D )))
(define-fun func44  ((A String) (B Int) (C String) ) String (str.substr A  B  (str.indexof A  C  1 )))
(define-fun func45  ((A String) (B Int) (C String) ) String (str.substr A  B  (str.indexof A  C  0 )))
(define-fun func46  ((A String) (B Int) (C String) (D String) (E Int) ) String (str.substr A  B  (str.indexof C  D  E )))
(define-fun func47  ((A String) (B Int) (C String) (D String) ) String (str.substr A  B  (str.indexof C  D  1 )))
(define-fun func48  ((A String) (B Int) (C String) (D String) ) String (str.substr A  B  (str.indexof C  D  0 )))
(define-fun func49  ((A String) (B Int) (C Int) (D String) ) String (str.substr A  (+ B  C ) (str.len D )))
(define-fun func50  ((A String) (B Int) (C String) ) String (str.substr A  B  (str.len C )))
(define-fun func51  ((A String) (B String) ) Bool (str.contains A  B ))
(define-fun func52  ((A String) ) String (str.at A  0 ))
(define-fun func53  ((A String) (B String) ) Int (str.indexof A  B  1 ))
(define-fun func54  ((A String) (B String) ) Int (str.indexof A  B  0 ))
(synth-fun f ((_arg_0 String)) String
( (Start String (ntString))
 (ntString String (
	_arg_0 "" " " "<" ">" "," "/" 
	(func0 ntString ntString ntString ntString ntString)
	(func1 ntString ntString ntString ntString)
	(func2 ntString ntString ntString)
	(func3 ntString ntString ntString ntString)
	(func4 ntString ntString ntInt)
	(func5 ntString ntString)
	(func19 ntString ntInt ntString ntInt)
	(func20 ntString ntInt ntString)
	(func34 ntString ntString ntInt)
	(func35 ntString ntString)
	(func37 ntString ntString ntString)
	(func39 ntString ntInt ntInt ntInt)
	(func41 ntString ntInt)
	(func42 ntString ntInt)
	(func43 ntString ntInt ntString ntInt)
	(func44 ntString ntInt ntString)
	(func45 ntString ntInt ntString)
	(func46 ntString ntInt ntString ntString ntInt)
	(func47 ntString ntInt ntString ntString)
	(func49 ntString ntInt ntInt ntString)
	(func50 ntString ntInt ntString)
	(str.++ ntString ntString)
	(str.replace ntString ntString ntString)
	(int.to.str ntInt)
))
 (ntInt Int (
	1 0 -1 
	(func7 ntInt)
	(func8 ntString ntString ntInt)
	(func9 ntString ntString)
	(func12 ntInt)
	(func14 ntInt ntString ntString)
	(func16 ntInt ntString)
	(func17 ntString)
	(func18 ntInt)
	(+ ntInt ntInt)
	(str.len ntString)
	(str.to.int ntString)
	(str.indexof ntString ntString ntInt)
))
 (ntBool Bool (
	true false
	(str.contains ntString ntString)
))
))
(constraint (= (f "R/V<208,0,32>") "R/V 208 0 32"))
(constraint (= (f "R/S<184,28,16>") "R/S 184 28 16"))
(constraint (= (f "R/B<255,88,80>") "R/B 255 88 80"))
(check-synth)
